//Number of items      		
141
//Bin Capacity      
1000
//Known Best Solution  		
58
//Weight of Item
     793         1
     791         1
     771         1
     755         1
     752         1
     750         1
     748         2
     746         1
     723         1
     720         1
     709         1
     695         1
     694         1
     682         1
     680         2
     678         1
     659         1
     650         1
     649         1
     637         2
     630         1
     616         1
     608         1
     600         1
     599         1
     598         1
     597         1
     592         1
     591         2
     578         1
     577         1
     571         1
     567         1
     556         1
     540         1
     536         1
     532         1
     527         1
     525         1
     515         1
     512         2
     511         1
     504         1
     501         2
     500         1
     498         1
     494         1
     469         1
     466         1
     460         1
     456         1
     455         1
     452         1
     449         1
     439         1
     429         1
     423         2
     416         1
     414         1
     407         1
     406         1
     405         1
     403         1
     400         1
     398         2
     394         1
     384         1
     383         1
     381         1
     376         1
     374         2
     370         2
     368         1
     367         1
     362         2
     361         1
     360         1
     349         1
     325         1
     320         2
     316         1
     309         1
     308         1
     303         1
     299         1
     291         1
     288         2
     284         1
     282         1
     276         1
     275         1
     255         1
     246         1
     242         1
     235         1
     224         1
     214         1
     210         1
     198         1
     189         2
     175         2
     174         1
     173         1
     151         1
     145         1
     143         1
     137         1
     136         2
     135         1
     129         2
     125         1
     116         1
     113         1
     110         1
     105         2
     102         1
      96         1
      92         1
      87         1
      82         1
      78         1
      74         2
      61         1
      60         1
      54         1
      53         1
      49         1
      47         1
      40         1
      39         1
      34         1
      31         1
      27         1
      22         1
      19         1
      13         1
      11         1
       9         1
       6         1
       5         1
       3         1